c This is a CNF SAT formula in the DIMACS CNF format,
c produced with the bc2cnf translator by Tommi Junttila;
c see http://users.ics.aalto.fi/tjunttil/circuits/index.html
c phi_Gamma <-> 1
c phi_T_feature_det <-> 1
c phi_T_transitions <-> 1
c phi_T_transitions_consistency <-> 1
c phi_T <-> 1
c phi_sim_leaves <-> 1
c phi_sim_transition <-> 1
c phi_sim <-> 1
c FORMULA <-> 1
c pi_2_5 <-> 2
c pi_2_9 <-> 2
c pi_1_5 <-> 13
c pi_1_9 <-> 13
c pi_0_5 <-> 30
c pi_0_9 <-> 30
c pi_2_8 <-> 53
c pi_1_8 <-> 57
c pi_0_8 <-> 68
c pi_2_0 <-> 83
c pi_2_7 <-> 83
c pi_1_0 <-> 92
c pi_1_7 <-> 92
c pi_0_0 <-> 105
c pi_0_7 <-> 105
c pi_2_6 <-> 122
c pi_1_6 <-> 130
c pi_0_6 <-> 146
c pi_2_4 <-> 168
c pi_1_4 <-> 174
c pi_0_4 <-> 189
c pi_2_1 <-> 210
c pi_2_3 <-> 210
c pi_1_1 <-> 212
c pi_1_3 <-> 212
c pi_0_1 <-> 226
c pi_0_3 <-> 226
c pi_2_2 <-> 246
c pi_1_2 <-> 249
c pi_0_2 <-> 260
c alp_alert_1_0 <-> 275
c alp_alert_0_1 <-> 275
c alp_alert_0_2 <-> 275
c alp_alert_0_3 <-> 275
c alp_alert_0_4 <-> 275
c alp_alert_0_5 <-> 275
c alp_alert_0_6 <-> 275
c alp_alert_1_7 <-> 275
c alp_alert_0_8 <-> 275
c alp_alert_0_9 <-> 275
c alp_alert_1_1 <-> 276
c alp_alert_1_2 <-> 276
c alp_alert_1_3 <-> 276
c alp_alert_1_4 <-> 276
c alp_alert_1_5 <-> 276
c alp_alert_1_6 <-> 276
c alp_alert_1_8 <-> 276
c alp_alert_1_9 <-> 276
c alert_P100 <-> 276
c alp_alert_0_0 <-> 277
c alp_alert_0_7 <-> 277
c alert_P0 <-> 277
c tau_2_5_alert_1 <-> 321
c tau_2_5_alert_0 <-> 322
c tau_2_4_alert_1 <-> 327
c tau_2_4_alert_0 <-> 328
c tau_2_3_alert_1 <-> 329
c tau_2_3_alert_0 <-> 330
c tau_2_2_alert_1 <-> 331
c tau_2_2_alert_0 <-> 332
c tau_2_1_alert_1 <-> 333
c tau_2_1_alert_0 <-> 334
c tau_2_0_alert_1 <-> 335
c tau_2_0_alert_0 <-> 336
c tau_1_5_alert_1 <-> 384
c tau_1_5_alert_0 <-> 385
c tau_1_5_2 <-> 386
c tau_1_4_alert_1 <-> 395
c tau_1_4_alert_0 <-> 396
c tau_1_4_2 <-> 397
c tau_1_3_alert_1 <-> 398
c tau_1_3_alert_0 <-> 399
c tau_1_3_2 <-> 400
c tau_1_2_alert_1 <-> 401
c tau_1_2_alert_0 <-> 402
c tau_1_2_2 <-> 403
c tau_1_1_alert_1 <-> 404
c tau_1_1_alert_0 <-> 405
c tau_1_1_2 <-> 406
c tau_1_0_alert_1 <-> 407
c tau_1_0_alert_0 <-> 408
c tau_1_0_2 <-> 409
c tau_0_5_alert_1 <-> 486
c tau_0_5_alert_0 <-> 488
c tau_0_5_2 <-> 489
c tau_0_5_1 <-> 490
c tau_0_4_alert_1 <-> 505
c tau_0_4_alert_0 <-> 507
c tau_0_4_2 <-> 508
c tau_0_4_1 <-> 509
c tau_0_3_alert_1 <-> 510
c tau_0_3_alert_0 <-> 511
c tau_0_3_2 <-> 512
c tau_0_3_1 <-> 513
c tau_0_2_alert_1 <-> 514
c tau_0_2_alert_0 <-> 515
c tau_0_2_2 <-> 516
c tau_0_2_1 <-> 517
c tau_0_1_alert_1 <-> 518
c tau_0_1_alert_0 <-> 519
c tau_0_1_2 <-> 520
c tau_0_1_1 <-> 521
c tau_0_0_alert_1 <-> 522
c tau_0_0_alert_0 <-> 523
c tau_0_0_2 <-> 524
c tau_0_0_1 <-> 525
c lam_2_init_pos <-> 533
c lam_2_day_time <-> 535
c lam_2_clouds <-> 536
c lam_1_init_pos <-> 544
c lam_1_day_time <-> 546
c lam_1_clouds <-> 547
c lam_0_init_pos <-> 555
c lam_0_day_time <-> 557
c lam_0_clouds <-> 558
p wcnf 558 1510 11  
11 1 0
11 2 -3 0
11 2 -6 0
11 -2 6 3 0
11 -3 4 0
11 -3 533 0
11 3 -533 -4 0
11 -4 5 0
11 -4 -330 0
11 4 330 -5 0
11 5 329 0
11 5 -276 0
11 -5 276 -329 0
11 6 -7 0
11 6 -10 0
11 -6 10 7 0
11 -7 8 0
11 -7 535 0
11 7 -535 -8 0
11 -8 9 0
11 -8 -334 0
11 8 334 -9 0
11 9 333 0
11 9 -276 0
11 -9 276 -333 0
11 -10 11 0
11 -10 536 0
11 10 -536 -11 0
11 -11 12 0
11 -11 -336 0
11 11 336 -12 0
11 12 335 0
11 12 -276 0
11 -12 276 -335 0
11 13 -14 0
11 13 -19 0
11 -13 19 14 0
11 -14 15 0
11 -14 544 0
11 14 -544 -15 0
11 -15 16 0
11 -15 17 0
11 15 -17 -16 0
11 16 398 0
11 16 -276 0
11 -16 276 -398 0
11 -17 -399 0
11 -17 18 0
11 17 -18 399 0
11 18 -2 0
11 18 400 0
11 -18 -400 2 0
11 19 -20 0
11 19 -25 0
11 -19 25 20 0
11 -20 21 0
11 -20 546 0
11 20 -546 -21 0
11 -21 22 0
11 -21 23 0
11 21 -23 -22 0
11 22 404 0
11 22 -276 0
11 -22 276 -404 0
11 -23 -405 0
11 -23 24 0
11 23 -24 405 0
11 24 -2 0
11 24 406 0
11 -24 -406 2 0
11 -25 26 0
11 -25 547 0
11 25 -547 -26 0
11 -26 27 0
11 -26 28 0
11 26 -28 -27 0
11 27 407 0
11 27 -276 0
11 -27 276 -407 0
11 -28 -408 0
11 -28 29 0
11 28 -29 408 0
11 29 -2 0
11 29 409 0
11 -29 -409 2 0
11 30 -31 0
11 30 -38 0
11 -30 38 31 0
1 30 0
11 -31 32 0
11 -31 555 0
11 31 -555 -32 0
11 -32 33 0
11 -32 34 0
11 32 -34 -33 0
11 33 510 0
11 33 -276 0
11 -33 276 -510 0
11 -34 -511 0
11 -34 35 0
11 34 -35 511 0
11 -35 36 0
11 -35 37 0
11 35 -37 -36 0
11 36 -2 0
11 36 512 0
11 -36 -512 2 0
11 37 -13 0
11 37 513 0
11 -37 -513 13 0
11 38 -39 0
11 38 -46 0
11 -38 46 39 0
11 -39 40 0
11 -39 557 0
11 39 -557 -40 0
11 -40 41 0
11 -40 42 0
11 40 -42 -41 0
11 41 518 0
11 41 -276 0
11 -41 276 -518 0
11 -42 -519 0
11 -42 43 0
11 42 -43 519 0
11 -43 44 0
11 -43 45 0
11 43 -45 -44 0
11 44 -2 0
11 44 520 0
11 -44 -520 2 0
11 45 -13 0
11 45 521 0
11 -45 -521 13 0
11 -46 47 0
11 -46 558 0
11 46 -558 -47 0
11 -47 48 0
11 -47 49 0
11 47 -49 -48 0
11 48 522 0
11 48 -276 0
11 -48 276 -522 0
11 -49 -523 0
11 -49 50 0
11 49 -50 523 0
11 -50 51 0
11 -50 52 0
11 50 -52 -51 0
11 51 -2 0
11 51 524 0
11 -51 -524 2 0
11 52 -13 0
11 52 525 0
11 -52 -525 13 0
11 53 -3 0
11 53 -54 0
11 -53 54 3 0
11 54 -55 0
11 54 -56 0
11 -54 56 55 0
11 -55 4 0
11 -55 535 0
11 55 -535 -4 0
11 -56 8 0
11 -56 536 0
11 56 -536 -8 0
11 57 -58 0
11 57 -59 0
11 -57 59 58 0
11 -58 61 0
11 -58 544 0
11 58 -544 -61 0
11 59 -60 0
11 59 -64 0
11 -59 64 60 0
11 -60 61 0
11 -60 546 0
11 60 -546 -61 0
11 -61 16 0
11 -61 62 0
11 61 -62 -16 0
11 -62 -399 0
11 -62 63 0
11 62 -63 399 0
11 63 400 0
11 63 -53 0
11 -63 53 -400 0
11 -64 65 0
11 -64 547 0
11 64 -547 -65 0
11 -65 22 0
11 -65 66 0
11 65 -66 -22 0
11 -66 -405 0
11 -66 67 0
11 66 -67 405 0
11 67 406 0
11 67 -53 0
11 -67 53 -406 0
11 68 -69 0
11 68 -70 0
11 -68 70 69 0
1 68 0
11 -69 72 0
11 -69 555 0
11 69 -555 -72 0
11 70 -71 0
11 70 -77 0
11 -70 77 71 0
11 -71 72 0
11 -71 557 0
11 71 -557 -72 0
11 -72 33 0
11 -72 73 0
11 72 -73 -33 0
11 -73 -511 0
11 -73 74 0
11 73 -74 511 0
11 -74 75 0
11 -74 76 0
11 74 -76 -75 0
11 75 512 0
11 75 -53 0
11 -75 53 -512 0
11 76 513 0
11 76 -57 0
11 -76 57 -513 0
11 -77 78 0
11 -77 558 0
11 77 -558 -78 0
11 -78 41 0
11 -78 79 0
11 78 -79 -41 0
11 -79 -519 0
11 -79 80 0
11 79 -80 519 0
11 -80 81 0
11 -80 82 0
11 80 -82 -81 0
11 81 520 0
11 81 -53 0
11 -81 53 -520 0
11 82 521 0
11 82 -57 0
11 -82 57 -521 0
11 83 -84 0
11 83 -85 0
11 -83 85 84 0
11 -84 87 0
11 -84 533 0
11 84 -533 -87 0
11 85 -86 0
11 85 -89 0
11 -85 89 86 0
11 -86 87 0
11 -86 535 0
11 86 -535 -87 0
11 -87 -331 0
11 -87 88 0
11 87 -88 331 0
11 88 332 0
11 88 -277 0
11 -88 277 -332 0
11 -89 90 0
11 -89 536 0
11 89 -536 -90 0
11 -90 -321 0
11 -90 91 0
11 90 -91 321 0
11 91 322 0
11 91 -277 0
11 -91 277 -322 0
11 92 -93 0
11 92 -94 0
11 -92 94 93 0
11 -93 96 0
11 -93 544 0
11 93 -544 -96 0
11 94 -95 0
11 94 -100 0
11 -94 100 95 0
11 -95 96 0
11 -95 546 0
11 95 -546 -96 0
11 -96 -401 0
11 -96 97 0
11 96 -97 401 0
11 -97 98 0
11 -97 99 0
11 97 -99 -98 0
11 98 402 0
11 98 -277 0
11 -98 277 -402 0
11 99 -83 0
11 99 403 0
11 -99 -403 83 0
11 -100 101 0
11 -100 547 0
11 100 -547 -101 0
11 -101 -384 0
11 -101 102 0
11 101 -102 384 0
11 -102 103 0
11 -102 104 0
11 102 -104 -103 0
11 103 385 0
11 103 -277 0
11 -103 277 -385 0
11 104 -83 0
11 104 386 0
11 -104 -386 83 0
11 105 -106 0
11 105 -107 0
11 -105 107 106 0
1 105 0
11 -106 109 0
11 -106 555 0
11 106 -555 -109 0
11 107 -108 0
11 107 -115 0
11 -107 115 108 0
11 -108 109 0
11 -108 557 0
11 108 -557 -109 0
11 -109 -514 0
11 -109 110 0
11 109 -110 514 0
11 -110 111 0
11 -110 112 0
11 110 -112 -111 0
11 111 515 0
11 111 -277 0
11 -111 277 -515 0
11 -112 113 0
11 -112 114 0
11 112 -114 -113 0
11 113 -83 0
11 113 516 0
11 -113 -516 83 0
11 114 -92 0
11 114 517 0
11 -114 -517 92 0
11 -115 116 0
11 -115 558 0
11 115 -558 -116 0
11 -116 -486 0
11 -116 117 0
11 116 -117 486 0
11 -117 118 0
11 -117 119 0
11 117 -119 -118 0
11 118 488 0
11 118 -277 0
11 -118 277 -488 0
11 -119 120 0
11 -119 121 0
11 119 -121 -120 0
11 120 -83 0
11 120 489 0
11 -120 -489 83 0
11 121 -92 0
11 121 490 0
11 -121 -490 92 0
11 122 -3 0
11 122 -123 0
11 -122 123 3 0
11 123 -124 0
11 123 -127 0
11 -123 127 124 0
11 -124 125 0
11 -124 535 0
11 124 -535 -125 0
11 -125 -332 0
11 -125 126 0
11 125 -126 332 0
11 126 331 0
11 126 -276 0
11 -126 276 -331 0
11 -127 128 0
11 -127 536 0
11 127 -536 -128 0
11 -128 -322 0
11 -128 129 0
11 128 -129 322 0
11 129 321 0
11 129 -276 0
11 -129 276 -321 0
11 130 -131 0
11 130 -135 0
11 -130 135 131 0
11 -131 132 0
11 -131 544 0
11 131 -544 -132 0
11 -132 16 0
11 -132 133 0
11 132 -133 -16 0
11 -133 -399 0
11 -133 134 0
11 133 -134 399 0
11 134 400 0
11 134 -122 0
11 -134 122 -400 0
11 135 -136 0
11 135 -141 0
11 -135 141 136 0
11 -136 137 0
11 -136 546 0
11 136 -546 -137 0
11 -137 138 0
11 -137 139 0
11 137 -139 -138 0
11 138 401 0
11 138 -276 0
11 -138 276 -401 0
11 -139 -402 0
11 -139 140 0
11 139 -140 402 0
11 140 403 0
11 140 -122 0
11 -140 122 -403 0
11 -141 142 0
11 -141 547 0
11 141 -547 -142 0
11 -142 143 0
11 -142 144 0
11 142 -144 -143 0
11 143 384 0
11 143 -276 0
11 -143 276 -384 0
11 -144 -385 0
11 -144 145 0
11 144 -145 385 0
11 145 386 0
11 145 -122 0
11 -145 122 -386 0
11 146 -147 0
11 146 -153 0
11 -146 153 147 0
1 146 0
11 -147 148 0
11 -147 555 0
11 147 -555 -148 0
11 -148 33 0
11 -148 149 0
11 148 -149 -33 0
11 -149 -511 0
11 -149 150 0
11 149 -150 511 0
11 -150 151 0
11 -150 152 0
11 150 -152 -151 0
11 151 512 0
11 151 -122 0
11 -151 122 -512 0
11 152 513 0
11 152 -130 0
11 -152 130 -513 0
11 153 -154 0
11 153 -161 0
11 -153 161 154 0
11 -154 155 0
11 -154 557 0
11 154 -557 -155 0
11 -155 156 0
11 -155 157 0
11 155 -157 -156 0
11 156 514 0
11 156 -276 0
11 -156 276 -514 0
11 -157 -515 0
11 -157 158 0
11 157 -158 515 0
11 -158 159 0
11 -158 160 0
11 158 -160 -159 0
11 159 516 0
11 159 -122 0
11 -159 122 -516 0
11 160 517 0
11 160 -130 0
11 -160 130 -517 0
11 -161 162 0
11 -161 558 0
11 161 -558 -162 0
11 -162 163 0
11 -162 164 0
11 162 -164 -163 0
11 163 486 0
11 163 -276 0
11 -163 276 -486 0
11 -164 -488 0
11 -164 165 0
11 164 -165 488 0
11 -165 166 0
11 -165 167 0
11 165 -167 -166 0
11 166 489 0
11 166 -122 0
11 -166 122 -489 0
11 167 490 0
11 167 -130 0
11 -167 130 -490 0
11 168 -3 0
11 168 -169 0
11 -168 169 3 0
11 169 -170 0
11 169 -171 0
11 -169 171 170 0
11 -170 11 0
11 -170 535 0
11 170 -535 -11 0
11 -171 172 0
11 -171 536 0
11 171 -536 -172 0
11 -172 173 0
11 -172 -328 0
11 172 328 -173 0
11 173 327 0
11 173 -276 0
11 -173 276 -327 0
11 174 -175 0
11 174 -179 0
11 -174 179 175 0
11 -175 176 0
11 -175 544 0
11 175 -544 -176 0
11 -176 16 0
11 -176 177 0
11 176 -177 -16 0
11 -177 -399 0
11 -177 178 0
11 177 -178 399 0
11 178 400 0
11 178 -168 0
11 -178 168 -400 0
11 179 -180 0
11 179 -184 0
11 -179 184 180 0
11 -180 181 0
11 -180 546 0
11 180 -546 -181 0
11 -181 27 0
11 -181 182 0
11 181 -182 -27 0
11 -182 -408 0
11 -182 183 0
11 182 -183 408 0
11 183 409 0
11 183 -168 0
11 -183 168 -409 0
11 -184 185 0
11 -184 547 0
11 184 -547 -185 0
11 -185 186 0
11 -185 187 0
11 185 -187 -186 0
11 186 395 0
11 186 -276 0
11 -186 276 -395 0
11 -187 -396 0
11 -187 188 0
11 187 -188 396 0
11 188 -168 0
11 188 397 0
11 -188 -397 168 0
11 189 -190 0
11 189 -196 0
11 -189 196 190 0
1 189 0
11 -190 191 0
11 -190 555 0
11 190 -555 -191 0
11 -191 33 0
11 -191 192 0
11 191 -192 -33 0
11 -192 -511 0
11 -192 193 0
11 192 -193 511 0
11 -193 194 0
11 -193 195 0
11 193 -195 -194 0
11 194 512 0
11 194 -168 0
11 -194 168 -512 0
11 195 513 0
11 195 -174 0
11 -195 174 -513 0
11 196 -197 0
11 196 -203 0
11 -196 203 197 0
11 -197 198 0
11 -197 557 0
11 197 -557 -198 0
11 -198 48 0
11 -198 199 0
11 198 -199 -48 0
11 -199 -523 0
11 -199 200 0
11 199 -200 523 0
11 -200 201 0
11 -200 202 0
11 200 -202 -201 0
11 201 524 0
11 201 -168 0
11 -201 168 -524 0
11 202 525 0
11 202 -174 0
11 -202 174 -525 0
11 -203 204 0
11 -203 558 0
11 203 -558 -204 0
11 -204 205 0
11 -204 206 0
11 204 -206 -205 0
11 205 505 0
11 205 -276 0
11 -205 276 -505 0
11 -206 -507 0
11 -206 207 0
11 206 -207 507 0
11 -207 208 0
11 -207 209 0
11 207 -209 -208 0
11 208 -168 0
11 208 508 0
11 -208 -508 168 0
11 209 -174 0
11 209 509 0
11 -209 -509 174 0
11 210 -3 0
11 210 -211 0
11 -210 211 3 0
11 211 -7 0
11 211 -171 0
11 -211 171 7 0
11 212 -213 0
11 212 -217 0
11 -212 217 213 0
11 -213 214 0
11 -213 544 0
11 213 -544 -214 0
11 -214 16 0
11 -214 215 0
11 214 -215 -16 0
11 -215 -399 0
11 -215 216 0
11 215 -216 399 0
11 216 400 0
11 216 -210 0
11 -216 210 -400 0
11 217 -218 0
11 217 -222 0
11 -217 222 218 0
11 -218 219 0
11 -218 546 0
11 218 -546 -219 0
11 -219 22 0
11 -219 220 0
11 219 -220 -22 0
11 -220 -405 0
11 -220 221 0
11 220 -221 405 0
11 221 406 0
11 221 -210 0
11 -221 210 -406 0
11 -222 223 0
11 -222 547 0
11 222 -547 -223 0
11 -223 186 0
11 -223 224 0
11 223 -224 -186 0
11 -224 -396 0
11 -224 225 0
11 224 -225 396 0
11 225 397 0
11 225 -210 0
11 -225 210 -397 0
11 226 -227 0
11 226 -233 0
11 -226 233 227 0
1 226 0
11 -227 228 0
11 -227 555 0
11 227 -555 -228 0
11 -228 33 0
11 -228 229 0
11 228 -229 -33 0
11 -229 -511 0
11 -229 230 0
11 229 -230 511 0
11 -230 231 0
11 -230 232 0
11 230 -232 -231 0
11 231 512 0
11 231 -210 0
11 -231 210 -512 0
11 232 513 0
11 232 -212 0
11 -232 212 -513 0
11 233 -234 0
11 233 -240 0
11 -233 240 234 0
11 -234 235 0
11 -234 557 0
11 234 -557 -235 0
11 -235 41 0
11 -235 236 0
11 235 -236 -41 0
11 -236 -519 0
11 -236 237 0
11 236 -237 519 0
11 -237 238 0
11 -237 239 0
11 237 -239 -238 0
11 238 520 0
11 238 -210 0
11 -238 210 -520 0
11 239 521 0
11 239 -212 0
11 -239 212 -521 0
11 -240 241 0
11 -240 558 0
11 240 -558 -241 0
11 -241 205 0
11 -241 242 0
11 241 -242 -205 0
11 -242 -507 0
11 -242 243 0
11 242 -243 507 0
11 -243 244 0
11 -243 245 0
11 243 -245 -244 0
11 244 508 0
11 244 -210 0
11 -244 210 -508 0
11 245 509 0
11 245 -212 0
11 -245 212 -509 0
11 246 -3 0
11 246 -247 0
11 -246 247 3 0
11 247 -124 0
11 247 -248 0
11 -247 248 124 0
11 -248 125 0
11 -248 536 0
11 248 -536 -125 0
11 249 -250 0
11 249 -254 0
11 -249 254 250 0
11 -250 251 0
11 -250 544 0
11 250 -544 -251 0
11 -251 16 0
11 -251 252 0
11 251 -252 -16 0
11 -252 -399 0
11 -252 253 0
11 252 -253 399 0
11 253 400 0
11 253 -246 0
11 -253 246 -400 0
11 254 -255 0
11 254 -256 0
11 -254 256 255 0
11 -255 257 0
11 -255 546 0
11 255 -546 -257 0
11 -256 257 0
11 -256 547 0
11 256 -547 -257 0
11 -257 138 0
11 -257 258 0
11 257 -258 -138 0
11 -258 -402 0
11 -258 259 0
11 258 -259 402 0
11 259 403 0
11 259 -246 0
11 -259 246 -403 0
11 260 -261 0
11 260 -267 0
11 -260 267 261 0
1 260 0
11 -261 262 0
11 -261 555 0
11 261 -555 -262 0
11 -262 33 0
11 -262 263 0
11 262 -263 -33 0
11 -263 -511 0
11 -263 264 0
11 263 -264 511 0
11 -264 265 0
11 -264 266 0
11 264 -266 -265 0
11 265 512 0
11 265 -246 0
11 -265 246 -512 0
11 266 513 0
11 266 -249 0
11 -266 249 -513 0
11 267 -268 0
11 267 -269 0
11 -267 269 268 0
11 -268 270 0
11 -268 557 0
11 268 -557 -270 0
11 -269 270 0
11 -269 558 0
11 269 -558 -270 0
11 -270 156 0
11 -270 271 0
11 270 -271 -156 0
11 -271 -515 0
11 -271 272 0
11 271 -272 515 0
11 -272 273 0
11 -272 274 0
11 272 -274 -273 0
11 273 516 0
11 273 -246 0
11 -273 246 -516 0
11 274 517 0
11 274 -249 0
11 -274 249 -517 0
11 -275 0
11 278 533 0
11 278 -279 0
11 -278 279 -533 0
11 278 0
11 -279 -321 0
11 -279 280 0
11 279 -280 321 0
11 -280 -322 0
11 -280 281 0
11 280 -281 322 0
11 -281 -327 0
11 -281 -328 0
11 281 328 327 0
11 282 -279 0
11 282 535 0
11 -282 -535 279 0
11 282 0
11 283 544 0
11 283 -284 0
11 -283 284 -544 0
11 283 0
11 -284 -384 0
11 -284 285 0
11 284 -285 384 0
11 -285 -385 0
11 -285 286 0
11 285 -286 385 0
11 -286 -386 0
11 -286 287 0
11 286 -287 386 0
11 -287 -395 0
11 -287 288 0
11 287 -288 395 0
11 -288 -396 0
11 -288 -397 0
11 288 397 396 0
11 289 -284 0
11 289 546 0
11 -289 -546 284 0
11 289 0
11 290 555 0
11 290 -291 0
11 -290 291 -555 0
11 290 0
11 -291 -486 0
11 -291 292 0
11 291 -292 486 0
11 -292 -488 0
11 -292 293 0
11 292 -293 488 0
11 -293 -489 0
11 -293 294 0
11 293 -294 489 0
11 -294 -490 0
11 -294 295 0
11 294 -295 490 0
11 -295 -505 0
11 -295 296 0
11 295 -296 505 0
11 -296 -507 0
11 -296 297 0
11 296 -297 507 0
11 -297 -508 0
11 -297 -509 0
11 297 509 508 0
11 298 -291 0
11 298 557 0
11 -298 -557 291 0
11 298 0
11 299 533 0
11 299 -300 0
11 -299 300 -533 0
11 299 0
11 -300 301 0
11 -300 304 0
11 300 -304 -301 0
11 301 -302 0
11 301 -303 0
11 -301 303 302 0
11 -302 -330 0
11 -302 329 0
11 302 -329 330 0
11 -303 -329 0
11 -303 330 0
11 303 -330 329 0
11 -304 305 0
11 -304 308 0
11 304 -308 -305 0
11 305 -306 0
11 305 -307 0
11 -305 307 306 0
11 -306 -332 0
11 -306 331 0
11 306 -331 332 0
11 -307 -331 0
11 -307 332 0
11 307 -332 331 0
11 -308 309 0
11 -308 312 0
11 308 -312 -309 0
11 309 -310 0
11 309 -311 0
11 -309 311 310 0
11 -310 -334 0
11 -310 333 0
11 310 -333 334 0
11 -311 -333 0
11 -311 334 0
11 311 -334 333 0
11 312 -313 0
11 312 -314 0
11 -312 314 313 0
11 -313 -336 0
11 -313 335 0
11 313 -335 336 0
11 -314 -335 0
11 -314 336 0
11 314 -336 335 0
11 315 535 0
11 315 -300 0
11 -315 300 -535 0
11 315 0
11 316 536 0
11 316 -317 0
11 -316 317 -536 0
11 316 0
11 -317 318 0
11 -317 323 0
11 317 -323 -318 0
11 318 -319 0
11 318 -320 0
11 -318 320 319 0
11 -319 -322 0
11 -319 321 0
11 319 -321 322 0
11 -320 -321 0
11 -320 322 0
11 320 -322 321 0
11 -323 300 0
11 -323 324 0
11 323 -324 -300 0
11 324 -325 0
11 324 -326 0
11 -324 326 325 0
11 -325 -328 0
11 -325 327 0
11 325 -327 328 0
11 -326 -327 0
11 -326 328 0
11 326 -328 327 0
11 337 544 0
11 337 -338 0
11 -337 338 -544 0
11 337 0
11 -338 339 0
11 -338 347 0
11 338 -347 -339 0
11 339 -340 0
11 339 -345 0
11 -339 345 340 0
11 340 -341 0
11 340 -343 0
11 -340 343 341 0
11 -341 342 0
11 -341 398 0
11 341 -398 -342 0
11 -342 -399 0
11 -342 -400 0
11 342 400 399 0
11 -343 344 0
11 -343 399 0
11 343 -399 -344 0
11 -344 -398 0
11 -344 -400 0
11 344 400 398 0
11 -345 346 0
11 -345 400 0
11 345 -400 -346 0
11 -346 -398 0
11 -346 -399 0
11 346 399 398 0
11 -347 348 0
11 -347 356 0
11 347 -356 -348 0
11 348 -349 0
11 348 -354 0
11 -348 354 349 0
11 349 -350 0
11 349 -352 0
11 -349 352 350 0
11 -350 351 0
11 -350 401 0
11 350 -401 -351 0
11 -351 -402 0
11 -351 -403 0
11 351 403 402 0
11 -352 353 0
11 -352 402 0
11 352 -402 -353 0
11 -353 -401 0
11 -353 -403 0
11 353 403 401 0
11 -354 355 0
11 -354 403 0
11 354 -403 -355 0
11 -355 -401 0
11 -355 -402 0
11 355 402 401 0
11 -356 357 0
11 -356 365 0
11 356 -365 -357 0
11 357 -358 0
11 357 -363 0
11 -357 363 358 0
11 358 -359 0
11 358 -361 0
11 -358 361 359 0
11 -359 360 0
11 -359 404 0
11 359 -404 -360 0
11 -360 -405 0
11 -360 -406 0
11 360 406 405 0
11 -361 362 0
11 -361 405 0
11 361 -405 -362 0
11 -362 -404 0
11 -362 -406 0
11 362 406 404 0
11 -363 364 0
11 -363 406 0
11 363 -406 -364 0
11 -364 -404 0
11 -364 -405 0
11 364 405 404 0
11 365 -366 0
11 365 -371 0
11 -365 371 366 0
11 366 -367 0
11 366 -369 0
11 -366 369 367 0
11 -367 368 0
11 -367 407 0
11 367 -407 -368 0
11 -368 -408 0
11 -368 -409 0
11 368 409 408 0
11 -369 370 0
11 -369 408 0
11 369 -408 -370 0
11 -370 -407 0
11 -370 -409 0
11 370 409 407 0
11 -371 372 0
11 -371 409 0
11 371 -409 -372 0
11 -372 -407 0
11 -372 -408 0
11 372 408 407 0
11 373 546 0
11 373 -338 0
11 -373 338 -546 0
11 373 0
11 374 547 0
11 374 -375 0
11 -374 375 -547 0
11 374 0
11 -375 376 0
11 -375 387 0
11 375 -387 -376 0
11 376 -377 0
11 376 -382 0
11 -376 382 377 0
11 377 -378 0
11 377 -380 0
11 -377 380 378 0
11 -378 379 0
11 -378 384 0
11 378 -384 -379 0
11 -379 -385 0
11 -379 -386 0
11 379 386 385 0
11 -380 381 0
11 -380 385 0
11 380 -385 -381 0
11 -381 -384 0
11 -381 -386 0
11 381 386 384 0
11 -382 383 0
11 -382 386 0
11 382 -386 -383 0
11 -383 -384 0
11 -383 -385 0
11 383 385 384 0
11 -387 338 0
11 -387 388 0
11 387 -388 -338 0
11 388 -389 0
11 388 -393 0
11 -388 393 389 0
11 389 -390 0
11 389 -391 0
11 -389 391 390 0
11 -390 288 0
11 -390 395 0
11 390 -395 -288 0
11 -391 392 0
11 -391 396 0
11 391 -396 -392 0
11 -392 -395 0
11 -392 -397 0
11 392 397 395 0
11 -393 394 0
11 -393 397 0
11 393 -397 -394 0
11 -394 -395 0
11 -394 -396 0
11 394 396 395 0
11 410 555 0
11 410 -411 0
11 -410 411 -555 0
11 410 0
11 -411 412 0
11 -411 426 0
11 411 -426 -412 0
11 412 -413 0
11 412 -419 0
11 -412 419 413 0
11 413 -414 0
11 413 -416 0
11 -413 416 414 0
11 -414 415 0
11 -414 510 0
11 414 -510 -415 0
11 -415 -512 0
11 -415 422 0
11 415 -422 512 0
11 -416 417 0
11 -416 511 0
11 416 -511 -417 0
11 -417 -512 0
11 -417 418 0
11 417 -418 512 0
11 -418 -510 0
11 -418 -513 0
11 418 513 510 0
11 419 -420 0
11 419 -423 0
11 -419 423 420 0
11 -420 421 0
11 -420 512 0
11 420 -512 -421 0
11 -421 -510 0
11 -421 422 0
11 421 -422 510 0
11 -422 -511 0
11 -422 -513 0
11 422 513 511 0
11 -423 424 0
11 -423 513 0
11 423 -513 -424 0
11 -424 -510 0
11 -424 425 0
11 424 -425 510 0
11 -425 -511 0
11 -425 -512 0
11 425 512 511 0
11 -426 427 0
11 -426 441 0
11 426 -441 -427 0
11 427 -428 0
11 427 -434 0
11 -427 434 428 0
11 428 -429 0
11 428 -431 0
11 -428 431 429 0
11 -429 430 0
11 -429 514 0
11 429 -514 -430 0
11 -430 -516 0
11 -430 437 0
11 430 -437 516 0
11 -431 432 0
11 -431 515 0
11 431 -515 -432 0
11 -432 -516 0
11 -432 433 0
11 432 -433 516 0
11 -433 -514 0
11 -433 -517 0
11 433 517 514 0
11 434 -435 0
11 434 -438 0
11 -434 438 435 0
11 -435 436 0
11 -435 516 0
11 435 -516 -436 0
11 -436 -514 0
11 -436 437 0
11 436 -437 514 0
11 -437 -515 0
11 -437 -517 0
11 437 517 515 0
11 -438 439 0
11 -438 517 0
11 438 -517 -439 0
11 -439 -514 0
11 -439 440 0
11 439 -440 514 0
11 -440 -515 0
11 -440 -516 0
11 440 516 515 0
11 -441 442 0
11 -441 456 0
11 441 -456 -442 0
11 442 -443 0
11 442 -449 0
11 -442 449 443 0
11 443 -444 0
11 443 -446 0
11 -443 446 444 0
11 -444 445 0
11 -444 518 0
11 444 -518 -445 0
11 -445 -520 0
11 -445 452 0
11 445 -452 520 0
11 -446 447 0
11 -446 519 0
11 446 -519 -447 0
11 -447 -520 0
11 -447 448 0
11 447 -448 520 0
11 -448 -518 0
11 -448 -521 0
11 448 521 518 0
11 449 -450 0
11 449 -453 0
11 -449 453 450 0
11 -450 451 0
11 -450 520 0
11 450 -520 -451 0
11 -451 -518 0
11 -451 452 0
11 451 -452 518 0
11 -452 -519 0
11 -452 -521 0
11 452 521 519 0
11 -453 454 0
11 -453 521 0
11 453 -521 -454 0
11 -454 -518 0
11 -454 455 0
11 454 -455 518 0
11 -455 -519 0
11 -455 -520 0
11 455 520 519 0
11 456 -457 0
11 456 -463 0
11 -456 463 457 0
11 457 -458 0
11 457 -460 0
11 -457 460 458 0
11 -458 459 0
11 -458 522 0
11 458 -522 -459 0
11 -459 -524 0
11 -459 466 0
11 459 -466 524 0
11 -460 461 0
11 -460 523 0
11 460 -523 -461 0
11 -461 -524 0
11 -461 462 0
11 461 -462 524 0
11 -462 -522 0
11 -462 -525 0
11 462 525 522 0
11 463 -464 0
11 463 -467 0
11 -463 467 464 0
11 -464 465 0
11 -464 524 0
11 464 -524 -465 0
11 -465 -522 0
11 -465 466 0
11 465 -466 522 0
11 -466 -523 0
11 -466 -525 0
11 466 525 523 0
11 -467 468 0
11 -467 525 0
11 467 -525 -468 0
11 -468 -522 0
11 -468 469 0
11 468 -469 522 0
11 -469 -523 0
11 -469 -524 0
11 469 524 523 0
11 470 557 0
11 470 -411 0
11 -470 411 -557 0
11 470 0
11 471 558 0
11 471 -472 0
11 -471 472 -558 0
11 471 0
11 -472 473 0
11 -472 491 0
11 472 -491 -473 0
11 473 -474 0
11 473 -480 0
11 -473 480 474 0
11 474 -475 0
11 474 -477 0
11 -474 477 475 0
11 -475 476 0
11 -475 486 0
11 475 -486 -476 0
11 -476 -489 0
11 -476 483 0
11 476 -483 489 0
11 -477 478 0
11 -477 488 0
11 477 -488 -478 0
11 -478 -489 0
11 -478 479 0
11 478 -479 489 0
11 -479 -486 0
11 -479 -490 0
11 479 490 486 0
11 480 -481 0
11 480 -484 0
11 -480 484 481 0
11 -481 482 0
11 -481 489 0
11 481 -489 -482 0
11 -482 -486 0
11 -482 483 0
11 482 -483 486 0
11 -483 -488 0
11 -483 -490 0
11 483 490 488 0
11 -484 485 0
11 -484 490 0
11 484 -490 -485 0
11 -485 -486 0
11 -485 487 0
11 485 -487 486 0
11 -487 -488 0
11 -487 -489 0
11 487 489 488 0
11 -491 411 0
11 -491 492 0
11 491 -492 -411 0
11 492 -493 0
11 492 -499 0
11 -492 499 493 0
11 493 -494 0
11 493 -496 0
11 -493 496 494 0
11 -494 495 0
11 -494 505 0
11 494 -505 -495 0
11 -495 -508 0
11 -495 502 0
11 495 -502 508 0
11 -496 497 0
11 -496 507 0
11 496 -507 -497 0
11 -497 -508 0
11 -497 498 0
11 497 -498 508 0
11 -498 -505 0
11 -498 -509 0
11 498 509 505 0
11 499 -500 0
11 499 -503 0
11 -499 503 500 0
11 -500 501 0
11 -500 508 0
11 500 -508 -501 0
11 -501 -505 0
11 -501 502 0
11 501 -502 505 0
11 -502 -507 0
11 -502 -509 0
11 502 509 507 0
11 -503 504 0
11 -503 509 0
11 503 -509 -504 0
11 -504 -505 0
11 -504 506 0
11 504 -506 505 0
11 -506 -507 0
11 -506 -508 0
11 506 508 507 0
11 526 -527 0
11 526 -529 0
11 -526 529 527 0
11 526 0
11 -527 -535 0
11 -527 528 0
11 527 -528 535 0
11 -528 -536 0
11 -528 533 0
11 528 -533 536 0
11 529 -530 0
11 529 -532 0
11 -529 532 530 0
11 -530 -533 0
11 -530 531 0
11 530 -531 533 0
11 -531 -536 0
11 -531 535 0
11 531 -535 536 0
11 -532 -533 0
11 -532 534 0
11 532 -534 533 0
11 -534 -535 0
11 -534 536 0
11 534 -536 535 0
11 537 -538 0
11 537 -540 0
11 -537 540 538 0
11 537 0
11 -538 -546 0
11 -538 539 0
11 538 -539 546 0
11 -539 -547 0
11 -539 544 0
11 539 -544 547 0
11 540 -541 0
11 540 -543 0
11 -540 543 541 0
11 -541 -544 0
11 -541 542 0
11 541 -542 544 0
11 -542 -547 0
11 -542 546 0
11 542 -546 547 0
11 -543 -544 0
11 -543 545 0
11 543 -545 544 0
11 -545 -546 0
11 -545 547 0
11 545 -547 546 0
11 548 -549 0
11 548 -551 0
11 -548 551 549 0
11 548 0
11 -549 -557 0
11 -549 550 0
11 549 -550 557 0
11 -550 -558 0
11 -550 555 0
11 550 -555 558 0
11 551 -552 0
11 551 -554 0
11 -551 554 552 0
11 -552 -555 0
11 -552 553 0
11 552 -553 555 0
11 -553 -558 0
11 -553 557 0
11 553 -557 558 0
11 -554 -555 0
11 -554 556 0
11 554 -556 555 0
11 -556 -557 0
11 -556 558 0
11 556 -558 557 0
